benchmarks/bfuzz0/968530614143592820894741174850243659.smt2
(set-logic QF_FP)
(declare-const x0 (_ FloatingPoint 11 53))
(declare-const x1 (_ FloatingPoint 11 53))
(declare-const x2 (_ FloatingPoint 11 53))
(declare-const x3 (_ FloatingPoint 11 53))
(declare-const x4 (_ FloatingPoint 11 53))
(declare-const x5 (_ FloatingPoint 11 53))
(declare-const x6 (_ FloatingPoint 11 53))
(declare-const x7 (_ FloatingPoint 11 53))
(declare-const x8 (_ FloatingPoint 11 53))
(declare-const x9 (_ FloatingPoint 11 53))
(declare-const x10 (_ FloatingPoint 11 53))
(declare-const x11 (_ FloatingPoint 11 53))
(declare-const x12 (_ FloatingPoint 11 53))
(declare-const x13 (_ FloatingPoint 11 53))
(declare-const x14 (_ FloatingPoint 11 53))
(declare-const x15 (_ FloatingPoint 11 53))
(declare-const x16 (_ FloatingPoint 11 53))
(declare-const x17 (_ FloatingPoint 11 53))
(declare-const x18 (_ FloatingPoint 11 53))
(assert (fp.geq (fp.sub RNE x12 x13) (fp.div RNE x3 x13)))
(assert (fp.gt (fp.add RNE x12 x8) (fp.sub RNE x10 x3)))
(assert (fp.leq (fp.mul RNE x11 x12) (fp.sub RNE x14 x5)))
(assert (fp.leq (fp.mul RNE x3 x15) (fp.neg x18)))
(assert (fp.lt (fp.add RNE x0 x5) (fp.sub RNE x11 x8)))
(assert (fp.eq (fp.div RNE x1 x7) (fp.div RNE x4 x11)))
(assert (fp.geq (fp.mul RNE x10 x13) (fp.mul RNE x5 x12)))
(assert (fp.geq (fp.neg x2) (fp.sub RNE x17 x9)))
(assert (fp.eq (fp.div RNE x0 x1) (fp.add RNE x17 x15)))
(assert (fp.lt (fp.div RNE x17 x6) (fp.div RNE x5 x9)))
(assert (fp.leq (fp.add RNE x4 x18) (fp.mul RNE x11 x8)))
(assert (fp.lt (fp.mul RNE x13 x9) (fp.add RNE x16 x6)))
(assert (fp.leq (fp.sub RNE x1 x18) (fp.add RNE x2 x4)))
(check-sat)
