db/data/968530614143592820894741174850243659.z3.out
-------------------
2500.109443159
